Code/Graphs/LearningToLearn/LCVRP-N-15-k-6.vrp
NAME:        LCVRP-N-15-k-6.vrp
COMMENT : 	"Generated by Salomons, Philip (2023)"
TYPE : 	CVRP
DIMENSION : 	31
EDGE_WEIGHT_TYPE : 	EUC_2D	
CAPACITY : 	237
NODE_COORD_SECTION
1    500    500
2    804    985
3    392    536
4    516    145
5    937    70
6    658    488
7    851    538
8    811    247
9    980    62
10    946    120
11    789    169
12    738    121
13    16    42
14    547    530
15    628    858
16    913    943
17    538    69
18    281    930
19    605    149
20    585    203
21    461    905
22    563    150
23    522    190
24    508    40
25    524    197
26    491    202
27    574    119
28    706    179
29    641    146
30    276    847
31    495    68
DEMAND_SECTION
1    0
2    73
3    75
4    61
5    62
6    68
7    75
8    53
9    60
10    100
11    65
12    92
13    65
14    65
15    87
16    58
17    83
18    98
19    99
20    77
21    91
22    78
23    92
24    84
25    91
26    94
27    97
28    92
29    98
30    88
31    56
DEPOT_SECTION
1
-1
EOF
