Code/Graphs/LearningToLearn/LCVRP-N-15-k-6.sol
Route #1: 2 20 13 
Route #2: 3 21 26 
Route #3: 4 8 9 
Route #4: 5 6 27 
Route #5: 7 10 11 
Route #6: 12 23 16 
Route #7: 14 1 15 
Route #8: 17 29 
Route #9: 18 28 
Route #10: 19 30 25 
Route #11: 22 24 
Cost: 22824
